Optimal - objective value 25.00000000
     12 x_0_13                  1                       1
     13 x_0_14                  1                       1
     17 x_1_4                   1                       3
     21 x_1_8                   1                       2
     26 x_1_13                  1                       2
     45 x_3_7                   1                       2
     52 x_3_14                  1                       3
     72 x_5_13                  1                       1
     88 x_7_12                  1                       4
    104 x_9_15                  1                       2
    110 x_11_12                 1                       1
    119 x_14_15                 1                       3
    144 f_0_13                  7                       0
    145 f_13_0                  3                       0
    146 f_0_14                  8                       0
    147 f_14_0                  2                       0
    154 f_1_4                 5.5                       0
    155 f_4_1                 4.5                       0
    162 f_1_8                 5.5                       0
    163 f_8_1                 4.5                       0
    172 f_1_13                  4                       0
    173 f_13_1                  6                       0
    210 f_3_7                 6.5                       0
    211 f_7_3                 3.5                       0
    224 f_3_14                  3                       0
    225 f_14_3                  7                       0
    264 f_5_13                4.5                       0
    265 f_13_5                5.5                       0
    296 f_7_12                  6                       0
    297 f_12_7                  4                       0
    328 f_9_15                4.5                       0
    329 f_15_9                5.5                       0
    340 f_11_12               4.5                       0
    341 f_12_11               5.5                       0
    358 f_14_15               5.5                       0
    359 f_15_14               4.5                       0
